NAME          ClpDefau
ROWS
 N  OBJROW
 L  R_164_0
 L  R_164_1
 L  R_164_2
 L  R_164_3
 L  R_164_4
 L  R_164_5
 L  R_164_6
 L  R_164_7
 L  R_164_8
 L  R_164_9
 L  R_164_10
 L  R_164_11
 L  R_164_12
 L  R_164_13
 L  R_164_14
 L  R_164_15
 L  R_164_16
 L  R_164_17
 L  R_164_18
 L  R_164_19
 L  R_164_20
 L  R_164_21
 L  R_164_22
 L  R_164_23
 L  R_164_24
 L  R_164_25
 L  R_164_26
 L  R_164_27
 L  R_164_28
 L  R_164_29
 L  R_164_30
 L  R_164_31
COLUMNS
    x_0       OBJROW     -1.           R_164_1   57.         
    x_0       R_164_2   5.             R_164_4   41.         
    x_0       R_164_6   68.            R_164_7   23.         
    x_0       R_164_8   4.             R_164_9   23.         
    x_0       R_164_10  66.            R_164_11  66.         
    x_0       R_164_12  24.            R_164_14  54.         
    x_0       R_164_15  98.            R_164_16  76.         
    x_0       R_164_17  58.            R_164_18  97.         
    x_0       R_164_19  95.            R_164_20  68.         
    x_0       R_164_21  36.            R_164_23  46.         
    x_0       R_164_24  59.            R_164_26  73.         
    x_0       R_164_27  72.            R_164_28  63.         
    x_0       R_164_29  42.         
    x_1       OBJROW     -2.           R_164_1   99.         
    x_1       R_164_3   91.            R_164_5   65.         
    x_1       R_164_6   76.            R_164_7   94.         
    x_1       R_164_8   66.            R_164_9   88.         
    x_1       R_164_10  10.            R_164_11  44.         
    x_1       R_164_12  25.            R_164_14  74.         
    x_1       R_164_15  35.            R_164_16  88.         
    x_1       R_164_18  67.            R_164_19  35.         
    x_1       R_164_20  27.            R_164_22  92.         
    x_1       R_164_23  8.             R_164_24  23.         
    x_1       R_164_25  4.             R_164_26  9.          
    x_1       R_164_27  94.            R_164_29  17.         
    x_1       R_164_31  24.         
    x_2       OBJROW     -2.           R_164_0   1.          
    x_2       R_164_1   6.             R_164_2   32.         
    x_2       R_164_3   5.             R_164_4   79.         
    x_2       R_164_5   96.            R_164_6   44.         
    x_2       R_164_7   40.            R_164_8   99.         
    x_2       R_164_9   6.             R_164_11  80.         
    x_2       R_164_12  61.            R_164_14  88.         
    x_2       R_164_15  14.            R_164_16  17.         
    x_2       R_164_17  100.           R_164_18  66.         
    x_2       R_164_19  44.            R_164_20  78.         
    x_2       R_164_22  90.            R_164_23  18.         
    x_2       R_164_24  33.            R_164_25  21.         
    x_2       R_164_26  59.            R_164_27  66.         
    x_2       R_164_29  5.             R_164_31  57.         
    x_3       OBJROW     -6.           R_164_0   11.         
    x_3       R_164_1   80.            R_164_2   80.         
    x_3       R_164_3   33.            R_164_4   36.         
    x_3       R_164_5   1.             R_164_6   50.         
    x_3       R_164_7   15.            R_164_8   12.         
    x_3       R_164_9   13.            R_164_10  97.         
    x_3       R_164_11  28.            R_164_12  86.         
    x_3       R_164_13  40.            R_164_14  49.         
    x_3       R_164_15  98.            R_164_17  56.         
    x_3       R_164_18  3.             R_164_19  7.          
    x_3       R_164_22  13.            R_164_23  62.         
    x_3       R_164_24  67.            R_164_26  47.         
    x_3       R_164_27  48.            R_164_28  88.         
    x_3       R_164_29  14.            R_164_30  100.        
    x_3       R_164_31  3.          
    x_4       OBJROW     -3.           R_164_1   82.         
    x_4       R_164_2   27.            R_164_4   1.          
    x_4       R_164_5   48.            R_164_6   93.         
    x_4       R_164_7   97.            R_164_8   15.         
    x_4       R_164_9   51.            R_164_10  18.         
    x_4       R_164_11  51.            R_164_13  16.         
    x_4       R_164_14  43.            R_164_15  28.         
    x_4       R_164_16  4.             R_164_17  61.         
    x_4       R_164_18  93.            R_164_19  38.         
    x_4       R_164_20  59.            R_164_21  48.         
    x_4       R_164_22  68.            R_164_24  94.         
    x_4       R_164_28  30.            R_164_29  77.         
    x_4       R_164_30  55.            R_164_31  90.         
    x_5       OBJROW     -5.           R_164_1   74.         
    x_5       R_164_2   46.            R_164_3   70.         
    x_5       R_164_4   54.            R_164_6   88.         
    x_5       R_164_8   17.            R_164_10  91.         
    x_5       R_164_11  88.            R_164_12  23.         
    x_5       R_164_13  15.            R_164_14  97.         
    x_5       R_164_15  43.            R_164_16  92.         
    x_5       R_164_17  22.            R_164_19  91.         
    x_5       R_164_20  46.            R_164_21  74.         
    x_5       R_164_22  60.            R_164_23  4.          
    x_5       R_164_25  95.            R_164_26  66.         
    x_5       R_164_27  36.            R_164_28  91.         
    x_5       R_164_29  53.            R_164_30  61.         
    x_5       R_164_31  71.         
    x_6       OBJROW     -5.           R_164_0   96.         
    x_6       R_164_2   93.            R_164_3   80.         
    x_6       R_164_4   86.            R_164_5   82.         
    x_6       R_164_7   68.            R_164_8   60.         
    x_6       R_164_9   13.            R_164_10  28.         
    x_6       R_164_11  78.            R_164_12  28.         
    x_6       R_164_14  72.            R_164_15  26.         
    x_6       R_164_16  76.            R_164_17  63.         
    x_6       R_164_19  79.            R_164_20  62.         
    x_6       R_164_21  73.            R_164_22  92.         
    x_6       R_164_23  98.            R_164_24  1.          
    x_6       R_164_26  86.            R_164_27  97.         
    x_6       R_164_28  87.            R_164_30  65.         
    x_6       R_164_31  11.         
    x_7       OBJROW     -10.          R_164_0   45.         
    x_7       R_164_1   97.            R_164_4   81.         
    x_7       R_164_5   93.            R_164_6   21.         
    x_7       R_164_7   60.            R_164_8   20.         
    x_7       R_164_9   72.            R_164_10  1.          
    x_7       R_164_11  69.            R_164_13  27.         
    x_7       R_164_15  84.            R_164_16  89.         
    x_7       R_164_17  39.            R_164_18  41.         
    x_7       R_164_19  83.            R_164_21  83.         
    x_7       R_164_22  12.            R_164_23  27.         
    x_7       R_164_24  68.            R_164_26  65.         
    x_7       R_164_27  40.            R_164_28  59.         
    x_7       R_164_29  67.            R_164_30  15.         
    x_7       R_164_31  49.         
    x_8       OBJROW     -4.           R_164_1   46.         
    x_8       R_164_2   59.            R_164_3   64.         
    x_8       R_164_4   38.            R_164_5   18.         
    x_8       R_164_7   82.            R_164_8   35.         
    x_8       R_164_9   13.            R_164_11  97.         
    x_8       R_164_12  48.            R_164_13  18.         
    x_8       R_164_14  30.            R_164_15  71.         
    x_8       R_164_16  52.            R_164_18  36.         
    x_8       R_164_21  89.            R_164_22  42.         
    x_8       R_164_23  97.            R_164_24  91.         
    x_8       R_164_26  92.            R_164_27  80.         
    x_8       R_164_28  10.            R_164_29  51.         
    x_8       R_164_30  34.         
    x_9       OBJROW     -10.          R_164_0   62.         
    x_9       R_164_1   24.            R_164_2   49.         
    x_9       R_164_3   4.             R_164_4   22.         
    x_9       R_164_5   94.            R_164_6   56.         
    x_9       R_164_7   42.            R_164_8   77.         
    x_9       R_164_9   37.            R_164_10  20.         
    x_9       R_164_11  26.            R_164_13  19.         
    x_9       R_164_14  43.            R_164_15  54.         
    x_9       R_164_16  12.            R_164_17  32.         
    x_9       R_164_18  94.            R_164_19  44.         
    x_9       R_164_21  79.            R_164_22  19.         
    x_9       R_164_23  9.             R_164_24  100.        
    x_9       R_164_25  42.            R_164_26  15.         
    x_9       R_164_27  99.            R_164_28  51.         
    x_9       R_164_29  7.             R_164_30  61.         
    x_9       R_164_31  41.         
    x_10      OBJROW     -1.           R_164_0   80.         
    x_10      R_164_1   76.            R_164_2   86.         
    x_10      R_164_6   53.            R_164_7   58.         
    x_10      R_164_8   14.            R_164_9   76.         
    x_10      R_164_10  88.            R_164_11  23.         
    x_10      R_164_12  40.            R_164_13  91.         
    x_10      R_164_14  14.            R_164_15  29.         
    x_10      R_164_16  19.            R_164_17  12.         
    x_10      R_164_18  84.            R_164_19  61.         
    x_10      R_164_20  62.            R_164_21  4.          
    x_10      R_164_22  65.            R_164_23  7.          
    x_10      R_164_24  1.             R_164_26  88.         
    x_10      R_164_27  31.            R_164_28  63.         
    x_10      R_164_29  70.            R_164_30  14.         
    x_10      R_164_31  7.          
    x_11      OBJROW     -10.          R_164_0   81.         
    x_11      R_164_1   80.            R_164_2   51.         
    x_11      R_164_4   65.            R_164_5   87.         
    x_11      R_164_6   14.            R_164_8   27.         
    x_11      R_164_9   26.            R_164_10  56.         
    x_11      R_164_11  17.            R_164_12  39.         
    x_11      R_164_14  61.            R_164_15  68.         
    x_11      R_164_16  36.            R_164_17  90.         
    x_11      R_164_18  71.            R_164_19  4.          
    x_11      R_164_20  97.            R_164_21  25.         
    x_11      R_164_22  6.             R_164_23  81.         
    x_11      R_164_24  34.            R_164_25  61.         
    x_11      R_164_26  95.            R_164_27  29.         
    x_11      R_164_29  5.             R_164_30  14.         
    x_11      R_164_31  89.         
    x_12      OBJROW     -3.           R_164_0   24.         
    x_12      R_164_1   12.            R_164_4   38.         
    x_12      R_164_6   42.            R_164_7   36.         
    x_12      R_164_9   9.             R_164_10  54.         
    x_12      R_164_11  5.             R_164_12  85.         
    x_12      R_164_14  94.            R_164_15  3.          
    x_12      R_164_16  43.            R_164_17  94.         
    x_12      R_164_18  68.            R_164_19  26.         
    x_12      R_164_20  17.            R_164_21  58.         
    x_12      R_164_24  79.            R_164_25  25.         
    x_12      R_164_26  57.            R_164_27  61.         
    x_12      R_164_29  10.            R_164_30  78.         
    x_12      R_164_31  61.         
    x_13      OBJROW     -7.           R_164_0   79.         
    x_13      R_164_1   74.            R_164_3   40.         
    x_13      R_164_5   39.            R_164_6   4.          
    x_13      R_164_7   41.            R_164_8   69.         
    x_13      R_164_9   93.            R_164_10  57.         
    x_13      R_164_11  61.            R_164_13  75.         
    x_13      R_164_14  28.            R_164_15  78.         
    x_13      R_164_16  93.            R_164_17  76.         
    x_13      R_164_18  36.            R_164_19  64.         
    x_13      R_164_20  31.            R_164_21  39.         
    x_13      R_164_24  80.            R_164_25  43.         
    x_13      R_164_26  90.            R_164_27  53.         
    x_13      R_164_28  28.            R_164_29  34.         
    x_13      R_164_30  18.         
    x_14      OBJROW     -7.           R_164_0   56.         
    x_14      R_164_1   59.            R_164_2   61.         
    x_14      R_164_4   31.            R_164_5   69.         
    x_14      R_164_6   12.            R_164_7   70.         
    x_14      R_164_8   7.             R_164_9   56.         
    x_14      R_164_10  66.            R_164_11  47.         
    x_14      R_164_12  67.            R_164_14  9.          
    x_14      R_164_15  95.            R_164_16  36.         
    x_14      R_164_17  62.            R_164_18  84.         
    x_14      R_164_19  42.            R_164_20  7.          
    x_14      R_164_21  83.            R_164_22  98.         
    x_14      R_164_23  72.            R_164_24  87.         
    x_14      R_164_25  56.            R_164_26  5.          
    x_14      R_164_27  85.            R_164_28  7.          
    x_14      R_164_30  44.            R_164_31  13.         
    x_15      OBJROW     -9.           R_164_0   14.         
    x_15      R_164_1   45.            R_164_2   82.         
    x_15      R_164_3   62.            R_164_5   20.         
    x_15      R_164_6   44.            R_164_7   82.         
    x_15      R_164_8   87.            R_164_10  7.          
    x_15      R_164_12  70.            R_164_13  99.         
    x_15      R_164_14  54.            R_164_15  24.         
    x_15      R_164_16  6.             R_164_17  98.         
    x_15      R_164_20  38.            R_164_21  6.          
    x_15      R_164_23  29.            R_164_24  47.         
    x_15      R_164_25  77.            R_164_27  71.         
    x_15      R_164_28  1.             R_164_29  11.         
    x_15      R_164_30  36.            R_164_31  29.         
RHS
    RHS       R_164_0   653.           R_164_1   774.        
    RHS       R_164_2   772.           R_164_3   775.        
    RHS       R_164_4   743.           R_164_5   749.        
    RHS       R_164_6   840.           R_164_7   672.        
    RHS       R_164_8   679.           R_164_9   749.        
    RHS       R_164_10  673.           R_164_11  757.        
    RHS       R_164_12  828.           R_164_13  735.        
    RHS       R_164_14  653.           R_164_15  786.        
    RHS       R_164_16  686.           R_164_17  772.        
    RHS       R_164_18  849.           R_164_19  752.        
    RHS       R_164_20  751.           R_164_21  793.        
    RHS       R_164_22  850.           R_164_23  844.        
    RHS       R_164_24  805.           R_164_25  754.        
    RHS       R_164_26  681.           R_164_27  766.        
    RHS       R_164_28  792.           R_164_29  672.        
    RHS       R_164_30  729.           R_164_31  677.        
BOUNDS
 UI BOUND     x_0       10.         
 UI BOUND     x_1       10.         
 UI BOUND     x_2       10.         
 UI BOUND     x_3       10.         
 UI BOUND     x_4       10.         
 UI BOUND     x_5       10.         
 UI BOUND     x_6       10.         
 UI BOUND     x_7       10.         
 UI BOUND     x_8       10.         
 UI BOUND     x_9       10.         
 UI BOUND     x_10      10.         
 UI BOUND     x_11      10.         
 UI BOUND     x_12      10.         
 UI BOUND     x_13      10.         
 UI BOUND     x_14      10.         
 UI BOUND     x_15      10.         
ENDATA
